
Gurobi 7.5.2 (linux64) logging started Sat Jun 23 17:06:32 2018

Changed value of parameter LogFile to result/ilp/simNo_3-n_100-m_40-s_4-minVAF_0.05-cov_2000-k_2-fn_0.05-fp_0.0001-na_0.15.ILP.gurobiSolverLog
   Prev: gurobi.log  Default: 
Changed value of parameter TimeLimit to 86400.0
   Prev: 1e+100  Min: 0.0  Max: 1e+100  Default: 1e+100
Optimize a model with 1265601 rows, 330440 columns and 3489120 nonzeros
Variable types: 0 continuous, 330440 integer (330440 binary)
Coefficient statistics:
  Matrix range     [2e-03, 3e+00]
  Objective range  [1e-01, 9e+00]
  Bounds range     [1e+00, 1e+00]
  RHS range        [2e-01, 2e+00]
Found heuristic solution: objective -15237.16963
Presolve removed 340717 rows and 215165 columns (presolve time = 7s) ...
Presolve removed 341187 rows and 215165 columns (presolve time = 10s) ...
Presolve removed 341187 rows and 215165 columns (presolve time = 15s) ...
Presolve removed 341187 rows and 215165 columns (presolve time = 20s) ...
Presolve removed 341187 rows and 215165 columns (presolve time = 25s) ...
Presolve removed 341187 rows and 215165 columns (presolve time = 31s) ...
Presolve removed 341187 rows and 215165 columns (presolve time = 35s) ...
Presolve removed 341187 rows and 215165 columns (presolve time = 40s) ...
Presolve removed 341187 rows and 215165 columns (presolve time = 45s) ...
Presolve removed 341187 rows and 215165 columns (presolve time = 53s) ...
Presolve removed 341187 rows and 215165 columns
Presolve time: 54.97s
Presolved: 924414 rows, 115275 columns, 2562876 nonzeros
Variable types: 0 continuous, 115275 integer (115275 binary)
Presolve removed 0 rows and 0 columns (presolve time = 5s) ...
Presolved: 115275 rows, 1039689 columns, 2678151 nonzeros

Presolve removed 115275 rows and 1039689 columns

Root simplex log...

Iteration    Objective       Primal Inf.    Dual Inf.      Time
       0    8.5176237e+00   0.000000e+00   9.989700e+04     66s
    8728   -1.0846217e+02   0.000000e+00   0.000000e+00     69s
    8728   -1.0846217e+02   0.000000e+00   0.000000e+00     71s

Root relaxation: objective -1.084622e+02, 8728 iterations, 13.25 seconds
Total elapsed time = 102.91s
Total elapsed time = 116.28s

    Nodes    |    Current Node    |     Objective Bounds      |     Work
 Expl Unexpl |  Obj  Depth IntInf | Incumbent    BestBd   Gap | It/Node Time

     0     0 -108.46217    0  418 -15237.170 -108.46217  99.3%     -  127s
H    0     0                    -129.1113654 -108.46217  16.0%     -  135s
     0     0 -114.00099    0  415 -129.11137 -114.00099  11.7%     -  150s
     0     0 -116.46931    0  476 -129.11137 -116.46931  9.79%     -  180s
     0     0 -116.46931    0  473 -129.11137 -116.46931  9.79%     -  196s
     0     0 -118.09442    0  405 -129.11137 -118.09442  8.53%     -  207s
     0     0 -118.15509    0  345 -129.11137 -118.15509  8.49%     -  224s
     0     0 -118.15526    0  446 -129.11137 -118.15526  8.49%     -  237s
     0     0 -118.15542    0  427 -129.11137 -118.15542  8.49%     -  251s
     0     0 -120.17147    0  449 -129.11137 -120.17147  6.92%     -  267s
     0     0 -120.17147    0  451 -129.11137 -120.17147  6.92%     -  282s
     0     0 -120.42248    0  444 -129.11137 -120.42248  6.73%     -  298s
     0     0 -120.42248    0  449 -129.11137 -120.42248  6.73%     -  310s
     0     0 -120.55848    0  465 -129.11137 -120.55848  6.62%     -  325s
     0     0 -121.41771    0  453 -129.11137 -121.41771  5.96%     -  340s
     0     0 -121.46594    0  453 -129.11137 -121.46594  5.92%     -  351s
     0     0 -121.46594    0  456 -129.11137 -121.46594  5.92%     -  361s
     0     0 -122.94088    0  456 -129.11137 -122.94088  4.78%     -  379s
     0     0 -123.04850    0  503 -129.11137 -123.04850  4.70%     -  394s
     0     0 -123.22127    0  506 -129.11137 -123.22127  4.56%     -  405s
     0     0 -123.28705    0  461 -129.11137 -123.28705  4.51%     -  414s
     0     0 -123.28705    0  416 -129.11137 -123.28705  4.51%     -  432s
     0     0 -123.50703    0  473 -129.11137 -123.50703  4.34%     -  446s
     0     0 -123.50703    0  315 -129.11137 -123.50703  4.34%     -  456s
     0     0 -123.50703    0  315 -129.11137 -123.50703  4.34%     -  470s
     0     0 -123.50703    0  315 -129.11137 -123.50703  4.34%     -  485s
     0     0 -123.62123    0  278 -129.11137 -123.62123  4.25%     -  500s
     0     0 -123.63339    0  278 -129.11137 -123.63339  4.24%     -  513s
     0     0 -123.63339    0  278 -129.11137 -123.63339  4.24%     -  522s
     0     0 -123.66964    0  260 -129.11137 -123.66964  4.21%     -  573s
     0     0 -123.66964    0  203 -129.11137 -123.66964  4.21%     -  649s
     0     0 -123.66964    0   81 -129.11137 -123.66964  4.21%     -  652s
     0     0 -123.66964    0  120 -129.11137 -123.66964  4.21%     -  654s
     0     0 -123.66964    0  114 -129.11137 -123.66964  4.21%     -  655s
     0     0 -123.66977    0  128 -129.11137 -123.66977  4.21%     -  656s
     0     0 -123.66983    0  130 -129.11137 -123.66983  4.21%     -  657s
     0     0 -124.44421    0  129 -129.11137 -124.44421  3.61%     -  660s
     0     0 -124.44421    0  159 -129.11137 -124.44421  3.61%     -  668s
     0     0 -124.44421    0  132 -129.11137 -124.44421  3.61%     -  670s
     0     0 -124.44421    0  152 -129.11137 -124.44421  3.61%     -  671s
     0     0 -124.44421    0  150 -129.11137 -124.44421  3.61%     -  672s
     0     0 -124.44421    0  148 -129.11137 -124.44421  3.61%     -  672s
     0     0 -124.44421    0  156 -129.11137 -124.44421  3.61%     -  673s
     0     0 -124.72899    0   92 -129.11137 -124.72899  3.39%     -  674s
     0     0 -124.72899    0  132 -129.11137 -124.72899  3.39%     -  678s
     0     0 -124.72899    0  133 -129.11137 -124.72899  3.39%     -  679s
     0     0 -124.72899    0  139 -129.11137 -124.72899  3.39%     -  680s
     0     0 -124.80820    0  150 -129.11137 -124.80820  3.33%     -  680s
     0     0 -124.80820    0  150 -129.11137 -124.80820  3.33%     -  680s
     0     0 -124.82392    0   75 -129.11137 -124.82392  3.32%     -  681s
     0     0 -124.86892    0   74 -129.11137 -124.86892  3.29%     -  681s
     0     0 -124.88676    0   75 -129.11137 -124.88676  3.27%     -  682s
     0     0 -125.05965    0   84 -129.11137 -125.05965  3.14%     -  682s
     0     0 -125.05965    0   85 -129.11137 -125.05965  3.14%     -  683s
     0     0 -125.11344    0   87 -129.11137 -125.11344  3.10%     -  683s
     0     0 -125.14198    0   88 -129.11137 -125.14198  3.07%     -  684s
     0     0 -125.14198    0   88 -129.11137 -125.14198  3.07%     -  684s
     0     0 -125.14198    0   87 -129.11137 -125.14198  3.07%     -  684s
     0     0 -125.18446    0   88 -129.11137 -125.18446  3.04%     -  685s
     0     0 -125.18446    0   89 -129.11137 -125.18446  3.04%     -  685s
     0     0 -125.22737    0   88 -129.11137 -125.22737  3.01%     -  685s
     0     0 -125.25643    0   80 -129.11137 -125.25643  2.99%     -  686s
     0     0 -125.25643    0   81 -129.11137 -125.25643  2.99%     -  686s
     0     0 -125.28832    0   96 -129.11137 -125.28832  2.96%     -  686s
     0     0 -125.28832    0   94 -129.11137 -125.28832  2.96%     -  687s
     0     0 -125.34260    0   87 -129.11137 -125.34260  2.92%     -  687s
     0     0 -125.35042    0   92 -129.11137 -125.35042  2.91%     -  688s
     0     0 -125.40554    0   89 -129.11137 -125.40554  2.87%     -  688s
     0     0 -125.40554    0   91 -129.11137 -125.40554  2.87%     -  688s
     0     0 -125.45928    0   88 -129.11137 -125.45928  2.83%     -  689s
     0     0 -125.45928    0   89 -129.11137 -125.45928  2.83%     -  689s
     0     0 -125.45928    0   90 -129.11137 -125.45928  2.83%     -  690s
     0     0 -125.45928    0   88 -129.11137 -125.45928  2.83%     -  691s
     0     0 -125.45928    0   87 -129.11137 -125.45928  2.83%     -  691s
     0     0 -125.45928    0   90 -129.11137 -125.45928  2.83%     -  692s
     0     0     cutoff    0      -129.11137 -129.11137  0.00%     -  694s

Cutting planes:
  Gomory: 4
  Zero half: 48

Explored 1 nodes (27321 simplex iterations) in 694.49 seconds
Thread count was 1 (of 80 available processors)

Solution count 5: -129.111 -129.111 -129.111 ... -15237.2

Optimal solution found (tolerance 1.00e-04)
Best objective -1.291113654064e+02, best bound -1.291113654064e+02, gap 0.0000%
